
Log for 'problem.clp' Clone_1 (V12.4.0.0) Fri Oct  9 11:20:29 2015

Tried aggregator 0 times.
No LP presolve or aggregator reductions.
Presolve time =    0.02 sec.
Parallel mode: using up to 6 threads for barrier.
Number of nonzeros in lower triangle of A*A' = 3498
Using Approximate Minimum Degree ordering
Total time for automatic ordering = 0.00 sec.
Summary statistics for Cholesky factor:
  Threads                   = 6
  Rows in Factor            = 239
  Integer space required    = 2286
  Total non-zeros in factor = 11933
  Total FP ops to factor    = 873255
 Itn      Primal Obj        Dual Obj  Prim Inf Upper Inf  Dual Inf          
   0   1.0308306e+03   0.0000000e+00  4.00e+05  0.00e+00  7.05e+06
 Barrier aborted.
Barrier time =    0.09 sec.

Dual simplex solved model.

